npieces = 10;	
nplayers = 5;	
duration = [2, 8, 1, 9, 8, 5, 5, 4, 8, 7];
rehearsal = [[0, 0, 1, 1, 0, 1, 1, 1, 1, 0], [0, 1, 1, 0, 1, 1, 0, 0, 1, 1], [0, 0, 1, 0, 1, 1, 1, 0, 0, 1], [1, 1, 1, 0, 1, 1, 1, 0, 1, 1], [0, 1, 1, 1, 1, 1, 1, 0, 1, 1]];